
Gurobi 10.0.1 (linux64) logging started Mon Apr  1 02:41:19 2024

Set parameter LogFile to value "/data/optimi/optimi/kombadon/drings/SBahn/s-bahn-data/scripts/DeniseMA/processed/BGAS_BKW/RINS/BGAS_BKW_202403312232_random1_0.9.log"
Gurobi Optimizer version 10.0.1 build v10.0.1rc0 (linux64)

CPU model: Intel(R) Xeon(R) CPU E3-1270 v6 @ 3.80GHz, instruction set [SSE2|AVX|AVX2]
Thread count: 4 physical cores, 8 logical processors, using up to 8 threads

Optimize a model with 1967 rows, 1012 columns and 7145 nonzeros
Model fingerprint: 0xffcc863f
Variable types: 411 continuous, 601 integer (170 binary)
Coefficient statistics:
  Matrix range     [1e+00, 4e+02]
  Objective range  [1e+00, 4e+02]
  Bounds range     [1e+00, 2e+02]
  RHS range        [1e+00, 5e+03]

User MIP start did not produce a new incumbent solution
User MIP start violates constraint objective_cutoff by 49.140000000

Presolve removed 1160 rows and 483 columns
Presolve time: 0.02s
Presolved: 807 rows, 529 columns, 3263 nonzeros
Variable types: 200 continuous, 329 integer (329 binary)

Root relaxation: objective 4.294000e+03, 260 iterations, 0.00 seconds (0.00 work units)
Another try with MIP start

    Nodes    |    Current Node    |     Objective Bounds      |     Work
 Expl Unexpl |  Obj  Depth IntInf | Incumbent    BestBd   Gap | It/Node Time

     0     0 4294.00000    0   18          - 4294.00000      -     -    0s
     0     0 4351.00000    0   45          - 4351.00000      -     -    0s
     0     0 4351.00000    0   44          - 4351.00000      -     -    0s
     0     0 4351.00000    0   29          - 4351.00000      -     -    0s
     0     0 4351.00000    0   39          - 4351.00000      -     -    0s
     0     0 4389.00000    0   36          - 4389.00000      -     -    0s
     0     0 4389.00000    0   28          - 4389.00000      -     -    0s
     0     2 4389.00000    0   27          - 4389.00000      -     -    0s
 29776 15425 4624.25464   31   67          - 4590.84554      -   7.4    5s

Cutting planes:
  Learned: 8
  Gomory: 41
  Cover: 7
  Implied bound: 9
  Clique: 5
  MIR: 20
  StrongCG: 2
  Flow cover: 43
  Network: 1
  RLT: 3
  Relax-and-lift: 4

Explored 39352 nodes (320821 simplex iterations) in 6.46 seconds (4.09 work units)
Thread count was 8 (of 8 available processors)

Solution count 0

Model is infeasible
Best objective -, best bound -, gap -

User-callback calls 82672, time in user-callback 0.36 sec
